read_restart restart1.relax

newton off
communicate	single vel yes

neighbor        0.002 bin
neigh_modify	delay 0


#New pair style
pair_style gran model hertz tangential history 
pair_coeff	* *

timestep	1.25e-10


fix             m1 all property/global youngsModulus peratomtype 69.e8
fix             m2 all property/global poissonsRatio peratomtype 0.33
fix             m3 all property/global coefficientRestitution peratomtypepair 1 0.3
fix             m4 all property/global coefficientFriction peratomtypepair 1 1.05



fix		gravi all gravity 981. vector 0.0 0.0 -1.0

fix zwalls1 all wall/gran model hertz tangential history primitive type 1  zplane 0.0 temperature 300.
fix zwalls2 all wall/gran model hertz tangential history primitive type 1  zplane 0.3
fix xwalls1 all wall/gran model hertz tangential history primitive type 1  xplane 0.0 temperature 300.
fix xwalls2 all wall/gran model hertz tangential history primitive type 1  xplane 0.1 temperature 300.
fix ywalls1 all wall/gran model hertz tangential history primitive type 1  yplane -0.015 temperature 300.
fix ywalls2 all wall/gran model hertz tangential history primitive type 1  yplane 0.015 temperature 300.


fix             ftco all property/global thermalConductivity peratomtype 204.e5
fix             ftca all property/global thermalCapacity peratomtype 9.e6
fix             heattransfer all heat/gran initial_temperature 300.


#apply nve integration to all particles
fix		integr all nve/sphere

#output settings, include total thermal energy
compute		rke all erotate/sphere
#thermo_style	custom step atoms ke c_rke f_heattransfer vol
thermo		10
#thermo_modify	lost ignore norm no
#compute_modify	thermo_temp dynamic yes

run 2

reset_timestep 0


#insert the first particles so that dump is not empty
dump            dmp1 all custom 20000 coordtemp*.dump id type x y z f_Temp[0]
run 10

#-----------------------------------------------------------

label myloop1
variable j loop 10

 label      myloop2
 variable i loop   10
  

 variable a equal v_i*0.001
 variable b equal (-1)^(v_j+1)*v_a+(-1)^(v_j)*0.005
 variable c equal v_a+(v_j-1)*0.01
 
#----------------------------------
 
label 	myloop3
variable k loop 10
variable d equal v_k*0.001+0.005
variable e equal (v_d)-0.01
variable w equal 0.005*sqrt(1+(v_e/0.01)^2)
variable r equal v_w*(20-v_k)/20
variable t equal 3000*(0.005/v_w)^2*exp(-2*(v_r)^2/(v_w)^2)
variable u equal v_k+(v_i-1)*10+(v_j-1)*100+99
 
#set particle temperature 
region          $u sphere $c $b $d $w units box 
set             region $u property/atom Temp $t.

#run to see heat transfer
run             10000
 variable d delete
 variable e delete
 variable w delete
 variable r delete
 variable t delete
 variable u delete

 next k
 jump    myfile_kim.in  myloop3
#-------------------------------------------

 variable a delete
 variable b delete
 variable c delete
 

 next i
 jump    myfile_kim.in  myloop2

 
next j
jump    myfile_kim.in  myloop1

write_restart restart1.layer





